! OPT B3LYP def2-TZVP TightSCF

%maxcore 5000

%pal
nprocs 25
end

* xyz 0 1
O           1.68925613972526      1.77701602056532      2.34774490626602
  O          -3.62739945933353     -1.64003207009546      2.12374236059804
  C           1.46346219113207      0.21474877534373      0.47941655959022
  C           0.12812303626012     -0.28500272019253      0.90629414074171
  C          -2.26320555696038     -0.52585179357113      0.44814933272997
  C          -0.99096462442473     -0.08338621932145      0.09438542623833
  C           3.28288155607930      0.16972695461393     -1.16167362409070
  C           2.04024647718541     -0.25985075874735     -0.70124437120385
  C           2.16647984945775      1.18332155771328      1.21798120343622
  C          -0.04771464011681     -0.98187873855095      2.10429579263734
  C          -2.40331362188283     -1.21643136738168      1.66026180230379
  C          -3.45773184456447     -0.22146990294074     -0.43430513297111
  C           3.88227189239995     -0.39865819967236     -2.43511769122345
  C           3.96266004223013      1.11641041883197     -0.39707563624349
  C          -1.30036094239868     -1.45188632357455      2.47322274198827
  C           3.41472725515850      1.61856966805580      0.77456682061229
  C          -4.19760266637907     -1.44812591686099     -0.89945703478177
  C           2.98410680479254     -0.27712464675519     -3.63476665783314
  C          -5.49709468218107     -1.67352662533680     -0.72411528668015
  C           2.57341632989739     -1.29132353876176     -4.38659773269037
  H          -0.87312120366089      0.47038500470473     -0.82900185811574
  H           1.49274276945187     -0.99983154899153     -1.27390943977719
  H           0.80283864869536     -1.17247813677776      2.74733169956474
  H          -4.15286201415667      0.44487126914342      0.08747530972208
  H          -3.09880171827298      0.32924451008579     -1.30775191683467
  H           4.14374269014340     -1.45192378159112     -2.28942937435898
  H           4.82136746351681      0.12753517469121     -2.63709798899037
  H           4.93680146962393      1.46730289257740     -0.71931365784295
  H          -1.43803183997292     -2.00689790215347      3.39242329505331
  H           3.94206270502421      2.35927029833451      1.36261881747350
  H          -3.59496077355180     -2.19350951710406     -1.41243425031623
  H           2.65659279007216      0.73045290806631     -3.87940255955426
  H           0.79374880711348      1.47752083778338      2.57771336778181
  H          -4.23007211156516     -1.77531780175721      1.37602910213362
  H          -5.97134517804334     -2.57480312201398     -1.09155880292200
  H          -6.13867032883798     -0.95080104222285     -0.22955288986350
  H           1.92877194299273     -1.13778792896847     -5.24303201191542
  H           2.87044672779637     -2.31302978209369     -4.17417010510643
  H          -5.00958513891719      1.18084575197092      3.30150384609915
  H          -3.89960463169661     -0.50822231728916      4.64153058693716
  O          -2.32592711277789      0.77557704541437      5.01384900505898
  C          -3.73571190516556      0.50850414031521      4.99707009323867
  C          -4.27554253702092      1.54399241622713      4.01715336625947
  C          -2.00287765771112      1.58373906325893      3.98914914095995
  O          -0.90320450474970      1.89848783177597      3.67522154808605
  O          -3.13522047459067      1.98396239155189      3.33083151749122
  F          -4.83601556582916      2.60978340051262      4.68456820411982
  H          -4.13766897282427      0.64798011630106      5.99784490539890
  H           1.26965113903050      5.97693054077769     -0.86490009245609
  H           2.27726438012806      4.50081394738733     -0.98859525622731
  C           1.26135393093702      4.89645727049907     -0.99055138967491
  F          -0.47035254846807      5.13602996899537      0.63259374280557
  C           0.37106202984478      4.21695871823814      0.04753679801721
  H           0.88332719731997      3.67417465129992      0.83815679763159
  O           0.63393319246074      4.57023288522098     -2.23789851934584
  O          -0.39989160040683      3.32189546420430     -0.71063274209293
  C          -0.29700100451963      3.61188861529337     -2.04542510033537
  O          -0.92792084488882      3.07759094187113     -2.89599863632683
*
