! OPT B3LYP def2-TZVP TightSCF D3BJ RIJCOSX

%maxcore 5000

%pal
nprocs 32
end

* xyz 0 1
{XYZ}
*
