! OPT B3LYP def2-TZVP TightSCF

%maxcore 5000

%pal
nprocs 25
end

* xyz 0 1
O           1.36437773330011      1.54399989494759      2.12021156593951
  O          -3.76506394948079     -2.11840516532875      1.60743006961093
  C           1.37010209724471     -0.10898836662179      0.31923905711944
  C           0.02444695966469     -0.65104792726533      0.65376812000306
  C          -2.32385553724485     -0.96083748801272      0.02862776977848
  C          -1.04215046331940     -0.48305480976814     -0.23261680558568
  C           3.32193677465510     -0.13718572558360     -1.16136230143315
  C           2.06904925632317     -0.61264206827608     -0.78049356477087
  C           1.95815501404152      0.93160815621227      1.05988993517860
  C          -0.21571122853606     -1.35380947462950      1.83685430134132
  C          -2.52915887611677     -1.65713162174071      1.22884738438028
  C          -3.46163344000604     -0.67865963353582     -0.93315979669021
  C           4.04841547917128     -0.72833287078193     -2.35518049578504
  C           3.87987096585184      0.89201214677005     -0.40458941391278
  C          -1.47686870158411     -1.86164571625626      2.11542452199726
  C           3.20939726714135      1.42083823275927      0.68780217642073
  C          -4.17721597002625     -1.91231031318686     -1.41812016112716
  C           3.33197436779747     -0.51129793224740     -3.65959184151876
  C          -5.48998749724041     -2.11530678988579     -1.33690377634985
  C           2.94488555745767     -1.47258442852624     -4.48970106321168
  H          -0.87416350833961      0.06918910426217     -1.14992585789736
  H           1.61005045637759     -1.41148224885220     -1.35233840370657
  H           0.59106490573070     -1.51997685442494      2.54022689240267
  H          -4.17906689262131      0.01250599142254     -0.47896159964550
  H          -3.04280360344085     -0.15370988928420     -1.79630590018049
  H           4.20765517959033     -1.80107005203335     -2.20798963280597
  H           5.04177578741289     -0.27100961141310     -2.41401963005143
  H           4.85531633524089      1.28545864969185     -0.66838539070925
  H          -1.66036389969794     -2.42066573077213      3.02424064442723
  H           3.64101605085886      2.22315342641616      1.27274940481250
  H          -3.55007813511459     -2.68156696453151     -1.86270196060707
  H           3.12230366890209      0.52532794875439     -3.91275579690846
  H           0.54968248785628      1.10837791167922      2.41607294324500
  H          -4.32859982276617     -2.22833125821122      0.82598673536891
  H          -5.94831254483864     -3.02091316640195     -1.71438173364578
  H          -6.15395889158211     -1.37031879925462     -0.91023096957762
  H           2.43342307443223     -1.25025512178816     -5.41807776666177
  H           3.12904118588329     -2.51933058356288     -4.27174321536037
  H          -4.83563725146937      1.81880870575588      3.93479213633047
  H          -4.54717989048373      0.02053285405023      5.52206065467617
  C          -4.27720662455397      0.96702808032739      3.54714023107409
  O          -2.58149235457028      0.11848182045224      4.91301727459553
  C          -2.03336291452277      0.94028833531506      3.99945422735977
  C          -3.97276180249295     -0.09999303863565      4.60580763682036
  O          -2.96788554245680      1.42578975353568      3.16182223502670
  O          -0.87026027398089      1.21268018414718      3.93878364672428
  H          -4.77278732288802      0.57056709263789      2.66572893717137
  H          -4.08616906984039     -1.11269562510230      4.22087529680127
  O          -4.56210765829393      2.50985260162685      0.54592388776761
  C          -3.57440070932594      3.14632431762367      0.75700889782969
  O          -2.39207605984214      2.95545323609566      0.13874859785778
  O          -3.49711247133562      4.16169940123665      1.64398793233310
  C          -1.38704514459988      3.82748049935426      0.68385664138693
  C          -2.17161520029037      4.71402528067837      1.66507503004865
  H          -0.62127452804608      3.22648302087055      1.17196356903103
  H          -0.94201207431638      4.38777531749893     -0.13715121999880
  H          -2.22967723583393      5.75586901185766      1.35002782705729
  H          -1.78959546613465      4.65825235023546      2.68283109362357
*
