! OPT B3LYP def2-TZVP TightSCF D3BJ RIJCOSX

%maxcore 5000

%pal
nprocs 30
end

* xyz 0 1
O           1.65266421254053      0.92616388892552      2.76343669965113
  O          -3.50291663284164     -2.71579500378780      2.12390789311047
  C           1.26398228533315     -0.09185658747685      0.58562851256351
  C           0.00713182440787     -0.75765213640788      0.99475414690385
  C          -2.35202210737830     -1.23226753899003      0.58279570319927
  C          -1.15939761145680     -0.59940789139936      0.24783701781243
  C           2.93079460820309      0.30187223725608     -1.15692223753007
  C           1.72983801212234     -0.24590011646263     -0.72045836426085
  C           2.02600283764037      0.68074310189924      1.47900895340511
  C          -0.04028790840830     -1.59260730557109      2.11281739085925
  C          -2.35895744222835     -2.07906889487971      1.69725440609919
  C          -3.61082508314770     -0.99080205339047     -0.21798429376854
  C           3.40894164162203      0.07978466852350     -2.57686807402964
  C           3.68109504500268      1.03595796995179     -0.24202759450954
  C          -1.20808796923037     -2.25468325164531      2.45416546601604
  C           3.23388540232970      1.22737545415460      1.05588985333357
  C          -4.16517466403738     -2.24690931652032     -0.83150109419697
  C           2.38966123602255      0.47299581716766     -3.60528602260752
  C          -5.39198448476050     -2.71846764047786     -0.62917533013068
  C           1.85454262286113     -0.34826348319184     -4.50003526991156
  H          -1.14589463316560      0.06579587670378     -0.60687099120336
  H           1.13982388296923     -0.83807532214898     -1.40978154326589
  H           0.84910322418745     -1.73284167764523      2.71185054302364
  H          -4.37775708616194     -0.52395628207214      0.40912612188682
  H          -3.37952396392754     -0.27594591555635     -1.01150837880046
  H           3.68159682828304     -0.97008256835111     -2.72397632580054
  H           4.32118017864484      0.66461604883331     -2.73004086741308
  H           4.62374100856352      1.47331111550079     -0.54985342816829
  H          -1.24234130897948     -2.91931388512623      3.30742535548276
  H           3.80024234207453      1.82131344018327      1.76097490132850
  H          -3.47891597948351     -2.80011164936961     -1.46681756777889
  H           2.07211723097698      1.51225383383624     -3.57753908190619
  H           0.68534474810245      0.93219570859890      2.86246915720318
  H          -4.08037247175556     -2.88852403835880      1.36406361769260
  H          -5.73353632506199     -3.63363568610499     -1.09517442030740
  H          -6.10639934741375     -2.18958118083184     -0.00618444565086
  H           1.11740629329467     -0.00782765739386     -5.21639303354392
  H           2.14083153946048     -1.39336718116160     -4.54979839503778
  H          -4.42393059521554     -0.69339501460888      3.08099908988833
  H          -3.24780513051096     -1.49766980140477      5.02783055141254
  O          -1.99438616908393      0.04498058716866      4.56666833152248
  C          -3.27326053133592     -0.41742349372460      4.90626481687791
  C          -4.16332448853087      0.09785896146988      3.78020458099560
  C          -2.06821761332671      0.93866715719521      3.54111218717474
  O          -1.13157495298713      1.52253869458466      3.09610638200447
  O          -3.33286024607366      1.05674901781395      3.10809127762430
  H          -5.04819497725345      0.59836952214649      4.16570504936974
  H          -3.63916207368565      0.13401744704668      6.11272519348052
*
