! OPT B3LYP def2-TZVP TightSCF

%maxcore 5000

%pal
nprocs 25
end

* xyz 0 1
{XYZ}
*
