! wB97X-D3 def2-TZVPP TightSCF

%maxcore 5000

%pal
nprocs 25
end

* xyz 0 1
{XYZ}
*
