! Opt B3LYP def2-TZVP TightSCF TightOpt

%maxcore 5000

%pal
nprocs 20
end

* xyz 0 1
O        1.8251442784      1.1206360781      2.5320298046                 
O       -3.8080222474     -1.9911814643      2.1442430961                 
C        1.2725089502     -0.0621994345      0.4589600093                 
C       -0.0769873412     -0.5626460918      0.8985896519                 
C       -2.4071461680     -1.1463778167      0.3526969481                 
C       -1.1391287666     -0.6652078118     -0.0260370713                 
C        2.9708247325      0.0217262813     -1.3253104399                 
C        1.7089979231     -0.3711472447     -0.8509651413                 
C        2.1529324399      0.6887637815      1.2943222266                 
C       -0.3140389987     -0.9810841158      2.2213585045                 
C       -2.6169242883     -1.5389282111      1.6964115731                 
C       -3.4998544999     -1.2215275203     -0.6932055300                 
C        3.4376225833     -0.3291234030     -2.7242895770                 
C        3.8227795792      0.7295249378     -0.4693638743                 
C       -1.5652446686     -1.4573470683      2.6104390735                 
C        3.4142822112      1.0605631474      0.8188014517                 
C       -3.8824145750     -2.6508472794     -0.9737129210                 
C        2.6964749423      0.4116539696     -3.8124590005                 
C       -5.1348330509     -3.0957696868     -0.8351284007                 
C        1.4052326479      0.2269567895     -4.1058747457                 
H       -0.9912347765     -0.3540447378     -1.0515449340                 
H        1.0809205486     -0.9605711528     -1.4963523938                 
H        0.4697535128     -0.9737317767      2.9647476821                 
H       -4.3693183700     -0.6110395356     -0.3651841644                 
H       -3.1458817815     -0.7956175569     -1.6565475212                 
H        3.3832947426     -1.4266985302     -2.8873350199                 
H        4.5052408960     -0.0366402700     -2.8289355172                 
H        4.8055180021      1.0413040497     -0.8010651203                 
H       -1.7178975168     -1.7701095008      3.6361325334                 
H        4.0824510784      1.6305526370      1.4528923190                 
H       -3.1138008115     -3.3393841216     -1.3130307819                 
H        3.2557718560      1.1261494052     -4.4101907851                 
H        0.9355861428      1.1118023086      2.9027189913                 
H       -4.6043017401     -2.0426923964      1.6026283379                 
H       -5.3687689302     -4.1324905289     -1.0539446958                 
H       -5.9330956055     -2.4371687357     -0.5069835777                 
H        0.9523505193      0.7947997072     -4.9121586464                 
H        0.7862709446     -0.4848676092     -3.5795887987
*
