! OPT B3LYP def2-TZVP TightSCF

%maxcore 5000

%pal
nprocs 25
end

* xyz 0 1
O        1.4378139690      1.3195661235      2.4846843332                 
O       -3.6234784392     -2.4172476261      2.1711296358                 
C        1.2316508747     -0.0452440627      0.4817526856                 
C       -0.0501295459     -0.6510174407      0.9272245169                 
C       -2.4024759936     -1.1701844750      0.4805485812                 
C       -1.1861958465     -0.5988938885      0.1143732559                 
C        2.9867134943      0.1617234126     -1.2121583974                 
C        1.7864084777     -0.3790163602     -0.7557909566                 
C        1.9136446812      0.8917012095      1.2783982648                 
C       -0.1652800460     -1.3115486672      2.1572460316                 
C       -2.4771908492     -1.8350995348      1.7152730738                 
C       -3.6188231316     -1.0376314015     -0.4145222949                 
C        3.5576306637     -0.2451035689     -2.5577859631                 
C        3.6421187806      1.0766477396     -0.3896775700                 
C       -1.3613188329     -1.8963360126      2.5450015093                 
C        3.1126486007      1.4427193920      0.8396092968                 
C       -4.2044651309     -2.3528284400     -0.8606614678                 
C        2.6825503367      0.1391758189     -3.7190133238                 
C       -5.4758298944     -2.7129338946     -0.7095144037                 
C        2.1941432179     -0.7034841813     -4.6214319285                 
H       -1.1246082271     -0.0761530641     -0.8334873778                 
H        1.2640322567     -1.1006001298     -1.3739214573                 
H        0.7008179833     -1.4037257393      2.8019448401                 
H       -4.3961225376     -0.4520252456      0.0890069602                 
H       -3.3251032997     -0.4664904020     -1.3000436612                 
H        3.7333084446     -1.3251045492     -2.5829711451                 
H        4.5359707185      0.2324602654     -2.6760593020                 
H        4.5807689334      1.5130785794     -0.7119648283                 
H       -1.4451310488     -2.4239858047      3.4863615777                 
H        3.6125071571      2.1655921009      1.4715091226                 
H       -3.5103740987     -3.0409853560     -1.3366432547                 
H        2.4439570110      1.1973323924     -3.7963031512                 
H        0.5660773120      0.9317181704      2.6407788884                 
H       -4.2348821290     -2.5726546693      1.4367226504                 
H       -5.8390748728     -3.6710786874     -1.0589561646                 
H       -6.2028307461     -2.0540384265     -0.2452358997                 
H        1.5717158363     -0.3620514741     -5.4393010668                 
H        2.4041958508     -1.7670453117     -4.5782351147                 
H       -3.7819124477      1.5046688750      2.4301564483                 
H       -3.8867929422      0.2887540767      4.5462047808                 
O       -2.3065650109      1.5100397865      4.9534857776                 
C       -3.6499586806      1.3491506690      4.6071281732                 
C       -3.7926348963      2.1455748541      3.3129777241                 
C       -1.7535867024      2.5545063398      4.2458271669                 
O       -0.6704794347      2.9901686447      4.4333555721                 
O       -2.6291349035      2.9781576524      3.3063391611                 
F       -4.6841666607      2.7689057419      3.3197929694                 
H       -4.4424741478      1.8913455779      5.5966968645                 
H        1.8329521014      6.5049420870     -0.7906799666                 
H        2.8454988130      4.8061390611     -0.5276658488                 
C        1.8170451255      5.1313149483     -0.6718007341                 
F        0.5500524784      5.5249818609      1.0550504506                 
C        0.8188621288      4.6998131827      0.3990491439                 
H        1.1794165696      3.8509802697      0.9818752939                 
O        1.3097767922      4.5734049408     -1.8473807703                 
O       -0.3273800194      4.3000461543     -0.3581266355                 
C       -0.0000666508      4.1876399327     -1.6653806239                 
O       -0.7102496895      3.8033283026     -2.5291389711
*
