! OPT B3LYP def2-TZVP TightSCF D3BJ RIJCOSX

%maxcore 5000

%pal
nprocs 25
end

* xyz 0 1
O           1.95284935867922      1.17731310654300      2.74848183437749
  O          -3.63627099320915     -1.85399156182872      2.15022873657765
  C           1.44235515580065      0.10465179235079      0.61268825401206
  C           0.11320465018837     -0.39967691600451      1.02429921964839
  C          -2.23571639153736     -0.78580654629664      0.48038590897253
  C          -0.97182552608199     -0.31440586258643      0.15076626278088
  C           3.13334523011462      0.28726027754548     -1.14926979252510
  C           1.88926326213862     -0.12652796608999     -0.69115054141661
  C           2.29120661261983      0.81647481168229      1.48036865782982
  C          -0.09679283149515     -1.00996709854688      2.26360735191454
  C          -2.41058713782409     -1.39822132751997      1.72613950602327
  C          -3.39324733731922     -0.60209338095948     -0.47400822708292
  C           3.56716260394627      0.00556370863103     -2.57244305016263
  C           3.97107045307560      0.94488793810559     -0.25154555688197
  C          -1.34288074366023     -1.51016514564202      2.60782857104775
  C           3.55565619890672      1.20479301216407      1.04470872313926
  C          -4.00897532319623     -1.90338127466987     -0.90434626591191
  C           2.48194970600579      0.25336179470892     -3.57786689390172
  C          -5.28498268895078     -2.23580911988676     -0.73074657081531
  C           1.99885451684605     -0.66044647253424     -4.40940818302475
  H          -0.84934018780441      0.15616445915065     -0.81502043375905
  H           1.23745017080149     -0.66122617020540     -1.36952266566203
  H           0.72446778386811     -1.11433615653995      2.95920093167412
  H          -4.16601511857956      0.02480672870421     -0.01556725653668
  H          -3.02711955982656     -0.05660957390086     -1.34619021644367
  H           3.91429429035317     -1.02921085935941     -2.66075140870657
  H           4.42796303702633      0.64220448500686     -2.80121932444294
  H           4.95346315090947      1.27132937124890     -0.57198813493987
  H          -1.49767544001850     -2.00489860951761      3.55778709707278
  H           4.18754031498793      1.74435617724723      1.73799210476497
  H          -3.33106259598629     -2.61408635730000     -1.36883482140281
  H           2.06391658920224      1.25561402270784     -3.58573246074322
  H           0.99043867521224      1.24128039128456      2.86014348867613
  H          -4.17735661579702     -2.09329012592185      1.38123549782539
  H          -5.67233177094036     -3.19310276806645     -1.05463889508933
  H          -5.99396587231848     -1.54724832571268     -0.28168653522597
  H           1.20687370740842     -0.42547785920579     -5.10907715014445
  H           2.37856413781809     -1.67676392187972     -4.41885178349386
  H          -4.48947465293643      0.76770678833839      2.33782726857662
  H          -3.50631290452784     -0.38503432454836      4.21081440048485
  O          -2.14890874995584      1.15056374332018      4.47468477881986
  C          -3.50279297512468      0.69646359242567      4.32358527059556
  C          -3.97097704434673      1.39911425119510      3.05377034838012
  C          -1.75828365867393      1.77818424897146      3.35918692089157
  O          -0.65826815080865      2.19319931505318      3.15269919940591
  O          -2.78544905236081      1.88495640693498      2.47841226778305
  F          -4.78558005109557      2.46585242685973      3.35118375367986
  H          -4.08315869265099      1.00616347295710      5.18912848702970
  H           1.85906546883912      4.83799840823615     -0.66080737176322
  H           2.28429544851340      3.22238010071194     -0.00349296020267
  C           1.50753317794856      3.82785513611798     -0.46638351447373
  F          -0.38609557620644      5.06135440623285      0.30687214272699
  C           0.22100333751292      3.82176704333288      0.34993060282366
  H           0.31079203634862      3.52999765239202      1.39184158234240
  O           1.11616710655746      3.22152682832046     -1.70794597630156
  O          -0.59523623404638      2.90249584566690     -0.32301335077587
  C          -0.08420658530813      2.63761753415344     -1.56233920173501
  O          -0.63114052994149      1.96394636462175     -2.37671724071175
*
