! OPT B3LYP def2-TZVP TightSCF

%maxcore 5000

%pal
nprocs 25
end

* xyz 0 1
O           1.65520149637843      1.40394998571437      2.47117117445926
  O          -3.88312977347735     -1.63556222477443      2.02805852377497
  C           1.27467361309655      0.10064892064469      0.44909669392983
  C          -0.08021705093356     -0.34272788487183      0.86885172297702
  C          -2.46112436232463     -0.60668676104852      0.34556517805678
  C          -1.17556590491378     -0.18645981087443      0.01252988692083
  C           3.05471796037475      0.09281741609676     -1.23268862904808
  C           1.79259763101064     -0.29293220246643     -0.78762666561104
  C           2.06308324250416      0.93647107568359      1.26181499983177
  C          -0.30896038910944     -0.95418287430680      2.10736572535621
  C          -2.64821944814167     -1.22112553764928      1.59318372158854
  C          -3.62171934754396     -0.37656760038551     -0.60134745354871
  C           3.58241412981183     -0.38026981101650     -2.57418586680997
  C           3.81250441290493      0.91490032553839     -0.39971731325028
  C          -1.57751458795718     -1.39191912272576      2.46247733168361
  C           3.32445873416406      1.33645097784869      0.82778554782935
  C          -4.33598247700091     -1.63919171667648     -1.01017772480571
  C           2.78145847226580      0.12295734383013     -3.74349928413286
  C          -5.64460082731294     -1.84834985209105     -0.89325706100439
  C           2.19158930827091     -0.64290396249162     -4.65374221312626
  H          -1.02355381533010      0.29652215467270     -0.94586340716307
  H           1.18882919609151     -0.94053126175129     -1.41328555993133
  H           0.51863370996382     -1.12934774350388      2.78425674977808
  H          -4.34172841625691      0.32206472605951     -0.15909462510023
  H          -3.23766872165813      0.11716135917053     -1.49820241926947
  H           3.61146857513679     -1.47388539679425     -2.60366666128007
  H           4.61754381628195     -0.03841843951215     -2.67842737642945
  H           4.80091697041666      1.23242492668994     -0.71262906325875
  H          -1.74627145837852     -1.89469957833403      3.40620594417178
  H           3.90631366447224      1.98487857374064      1.47039618617411
  H          -3.70884755543860     -2.42218097873326     -1.43004382687358
  H           2.69158572553466      1.20398279531975     -3.82065986278325
  H           0.72979117316564      1.18350688503183      2.63906320983288
  H          -4.44541137392413     -1.82983750749878      1.26053008657060
  H          -6.10181305119987     -2.77504712177767     -1.21709154760493
  H          -6.30807934819802     -1.08999893762134     -0.49039040905053
  H           1.63008459246549     -0.21810058166394     -5.47662412239851
  H           2.25327061421389     -1.72531352876869     -4.61193267441256
  H          -5.21564116862976      3.48638062472167      3.97972222927350
  H          -5.17038197430086      2.08001931580358      5.96279947270792
  C          -4.61301927200743      2.58205952694029      3.88957993467707
  O          -3.14762091558226      2.35622970614771      5.68164734287736
  C          -2.48630376091132      2.93213985170448      4.66700847158358
  C          -4.41597799307900      1.84598846657903      5.21572601505162
  O          -3.26257319274000      2.96463796397708      3.54815027143477
  O          -1.37713256225399      3.36684305756747      4.70222020237055
  H          -5.00972049800782      1.95763890778076      3.09160438922854
  H          -4.32784302385537      0.76665321818190      5.08983034717728
  O          -5.36233433357026      1.98659827288791      0.22892039467118
  C          -4.59175018068659      2.89696742589072      0.30812726904047
  O          -3.29538493837424      2.83779703200010     -0.05502528428571
  O          -4.89414549766790      4.10966844737288      0.82283648792231
  C          -2.60518894755182      3.98836965980344      0.50197386400851
  C          -3.74570597326423      4.97875005191281      0.70757956723165
  H          -2.19247120314157      3.66909860556364      1.45430203278482
  H          -3.90631572674497      5.64943788364778     -0.13765492099757
  H          -1.84358973661481      4.31315931919404     -0.19989513994659
  H          -3.64684550564080      5.54872064401907      1.62827780954609
*
